clingo version 5.6.2
Reading from ...gen_asp_scripts/ijp_expt_cases-1032.dl
Solving...
UNSATISFIABLE

Models       : 0
Calls        : 1
Time         : 844.111s (Solving: 843.11s 1st Model: 0.00s Unsat: 843.11s)
CPU Time     : 842.526s
